18 58 76 0 96 85 50 92 44 31 15 27 29 75 21 1 12 86 70 94 60 71 41 37 49 42 19 2 25 8 38 16 83 51 69 78 52 13 79 56 47 95 73 57 10 84 48 97 89 90 9 68 35 87 23 66 54 45 32 93 26 34 67 30 40 80 98 17 55 7 11 62 53 77 33 59 36 64 91 28 22 14 74 81 24 63 82 72 4 3 46 99 39 61 88 5 20 6 65 43
